
Value of objective function: -3.59917e+07

Actual values of the variables:
Y00102                          0
Y00103                          0
Y00104                          0
Y00105                          0
Y00106                    1365.22
Y00202                          0
Y00203                          0
Y00204                     232200
Y00205                          0
Y00206                          0
Y00302                          0
Y00303                          0
Y00304                    18.4129
Y00305                     145427
Y00306                     146.87
Y00402                          0
Y00403                          0
Y00404                    5.04084
Y00405                    5340.93
Y00406                          0
Y00503                          0
Y00504                          0
Y00505                     175057
Y00506                    28275.9
Y00603                          0
Y00604                      13640
Y00605                    12090.6
Y00606                    4120.12
Y00703                          0
Y00704                          0
Y00705                      25400
Y00706                          0
Y00802                          0
Y00803                          0
Y00804                     236429
Y00805                     245377
Y00806                     227307
Y00902                          0
Y00903                          0
Y00904                     197523
Y00905                     205006
Y00906                     189905
Y01003                          0
Y01004                          0
Y01005                          0
Y01006                          0
Y01103                          0
Y01104                          0
Y01105                      68200
Y01106                      12000
Y01202                          0
Y01203                          0
Y01204                          0
Y01205                          0
Y01206                          0
Y01302                          0
Y01303                          0
Y01304                      99890
Y01305                      25297
Y01306                          0
Y01402                          0
Y01403                          0
Y01404                          0
Y01405                          0
Y01406                          0
Y01502                          0
Y01503                          0
Y01504                     150023
Y01505                    29959.3
Y01506                    30401.9
Y01602                          0
Y01603                          0
Y01604                      68537
Y01605                     825667
Y01606                          0
Y01702                          0
Y01703                          0
Y01704                          0
Y01705                          0
Y01706                          0
Y01802                          0
Y01803                          0
Y01804                          0
Y01805                     955206
Y01806                    63556.8
Y01902                          0
Y01903                          0
Y01904                     118071
Y01905                     216337
Y01906                     310524
Y02002                          0
Y02003                          0
Y02004                          0
Y02005                          0
Y02006                          0
I00101                          0
I00102                          0
I00103                          0
I00104                          0
I00105                          0
I00106                          0
I00201                          0
I00202                          0
I00203                          0
I00204                          0
I00205                          0
I00206                          0
I00301                          0
I00302                          0
I00303                          0
I00304                          0
I00305                          0
I00306                          0
I00401                          0
I00402                          0
I00403                          0
I00404                          0
I00405                          0
I00406                          0
I00501                          0
I00502                          0
I00503                          0
I00504                          0
I00505                          0
I00506                          0
I00601                          0
I00602                          0
I00603                          0
I00604                          0
I00605                          0
I00606                          0
X00103                    774.775
X00203                    98.1171
X00303                          0
X00503                          0
X00403                    2171.43
X00603                    313.863
X00703                    292.412
X00803                    233.573
X00104                    1830.82
X00204                    1235.84
X00304                          0
X00504                    3399.38
X00704                    726.554
X00105                    1900.98
X00205                     251.72
X00305                          0
X00505                    2679.09
X00404                    3154.83
X00604                    2408.14
X00705                    826.498
X00804                    1343.03
X00106                    1760.63
X00206                    233.074
X00306                     992.18
X00506                     1706.8
X00405                     2220.8
X00605                      11457
X00706                    966.823
X00805                          0
X00406                          0
X00606                          0
X00806                          0
